
Log started (V11.0.0) Fri May 16 06:50:06 2008

Tried aggregator 1 time.
Reduced MIP has 240 rows, 8001 columns, and 16040 nonzeros.
Presolve time =    0.06 sec.
Clique table members: 200.
MIP emphasis: balance optimality and feasibility.
MIP search method: dynamic search.
Parallel mode: none, using 1 thread.
Root relaxation solution time =    0.30 sec.

        Nodes                                         Cuts/
   Node  Left     Objective  IInf  Best Integer     Best Node    ItCnt     Gap

*     0+    0                        15901.0000      136.5790      644   99.14%
*     0+    0                          213.0000      136.5790      644   35.88%
      0     0      137.0765    78      213.0000      Fract: 6      683   35.64%
*     0+    0                          182.0000      137.0765      683   24.68%
      0     0      141.7348    88      182.0000   MIRcuts: 26     1100   22.12%
*     0+    0                          174.0000      141.7348     1100   18.54%
      0     0      142.0813    86      174.0000       Cuts: 9     1173   18.34%
*     0+    0                          172.0000      142.0813     1173   17.39%
      0     0      142.2966    89      172.0000       Cuts: 9     1234   17.27%
      0     0      142.4773    87      172.0000       Cuts: 8     1261   17.16%
      0     0      142.5471    85      172.0000       Cuts: 3     1267   17.12%
      0     0      142.6609    85      172.0000       Cuts: 4     1281   17.06%
*     0+    0                          168.0000      142.6609     1281   15.08%
      0     0      142.7575    86      168.0000       Cuts: 3     1305   15.03%
      0     0      142.8437    88      168.0000       Cuts: 3     1313   14.97%
      0     0      142.8437    87      168.0000     Covers: 1     1318   14.97%
      0     0      142.8437    88      168.0000     Covers: 1     1319   14.97%
*     0+    0                          166.0000      142.8437     1319   13.95%
*     0+    0                          157.0000      142.8437     1319    9.02%
*     0+    0                          154.0000      142.8437     1319    7.24%
      0     2      142.8437    88      154.0000      142.8437     1319    7.24%
*    50+   47                          153.0000      142.8804     2106    6.61%
    100    92      144.2660    67      153.0000      142.8804     4643    6.61%
    200   156      145.0000    46      153.0000      142.8804    13159    6.61%
    300   239      146.0000    42      153.0000      142.8804    15424    6.61%
    400   311      148.0000    27      153.0000      142.8804    17084    6.61%
*   476+  242                          152.0000      148.4299    20201    2.35%
    500   248      150.0000    33      152.0000      149.0000    20477    1.97%
    600   256      151.0000    34      152.0000      149.0000    22646    1.97%
    700   224      151.0000    30      152.0000      149.0000    25464    1.97%
    800   188      150.8603    46      152.0000      149.0000    27766    1.97%
*   886+  134                          151.0000      149.0000    30120    1.32%
    900   146      150.0000     7      151.0000      149.0000    30423    1.32%
*   986+    2                          150.0000      149.1862    32516    0.54%

Cover cuts applied:  66
Implied bound cuts applied:  22
Mixed integer rounding cuts applied:  6
Gomory fractional cuts applied:  1

Solution pool: 13 solutions saved.

MIP - Integer optimal solution:  Objective = 1.5000000000e+002
Solution time =   45.58 sec.  Iterations = 32516  Nodes = 986


Incumbent solution
Variable Name           Solution Value
Cmax                        150.000000
X_1_34                        1.000000
X_2_21                        1.000000
X_3_8                         1.000000
X_4_39                        1.000000
X_5_28                        1.000000
X_6_19                        1.000000
X_7_30                        1.000000
X_8_19                        1.000000
X_9_37                        1.000000
X_10_24                       1.000000
X_11_23                       1.000000
X_12_9                        1.000000
X_13_28                       1.000000
X_14_21                       1.000000
X_15_7                        1.000000
X_16_5                        1.000000
X_17_17                       1.000000
X_18_23                       1.000000
X_19_28                       1.000000
X_20_19                       1.000000
X_21_13                       1.000000
X_22_7                        1.000000
X_23_37                       1.000000
X_24_20                       1.000000
X_25_35                       1.000000
X_26_4                        1.000000
X_27_28                       1.000000
X_28_33                       1.000000
X_29_37                       1.000000
X_30_19                       1.000000
X_31_5                        1.000000
X_32_7                        1.000000
X_33_4                        1.000000
X_34_27                       1.000000
X_35_24                       1.000000
X_36_35                       1.000000
X_37_40                       1.000000
X_38_3                        1.000000
X_39_20                       1.000000
X_40_19                       1.000000
X_41_23                       1.000000
X_42_39                       1.000000
X_43_9                        1.000000
X_44_4                        1.000000
X_45_19                       1.000000
X_46_37                       1.000000
X_47_11                       1.000000
X_48_7                        1.000000
X_49_19                       1.000000
X_50_32                       1.000000
X_51_7                        1.000000
X_52_27                       1.000000
X_53_34                       1.000000
X_54_33                       1.000000
X_55_31                       1.000000
X_56_1                        1.000000
X_57_19                       1.000000
X_58_29                       1.000000
X_59_12                       1.000000
X_60_7                        1.000000
X_61_18                       1.000000
X_62_19                       1.000000
X_63_36                       1.000000
X_64_7                        1.000000
X_65_19                       1.000000
X_66_7                        1.000000
X_67_19                       1.000000
X_68_19                       1.000000
X_69_35                       1.000000
X_70_37                       1.000000
X_71_35                       1.000000
X_72_6                        1.000000
X_73_7                        1.000000
X_74_33                       1.000000
X_75_15                       1.000000
X_76_34                       1.000000
X_77_27                       1.000000
X_78_7                        1.000000
X_79_7                        1.000000
X_80_25                       1.000000
X_81_19                       1.000000
X_82_19                       1.000000
X_83_15                       1.000000
X_84_18                       1.000000
X_85_7                        1.000000
X_86_19                       1.000000
X_87_7                        1.000000
X_88_7                        1.000000
X_89_19                       1.000000
X_90_19                       1.000000
X_91_20                       1.000000
X_92_19                       1.000000
X_93_33                       1.000000
X_94_7                        1.000000
X_95_19                       1.000000
X_96_18                       1.000000
X_97_5                        1.000000
X_98_7                        1.000000
X_99_7                        1.000000
X_100_19                      1.000000
X_101_7                       1.000000
X_102_5                       1.000000
X_103_14                      1.000000
X_104_7                       1.000000
X_105_18                      1.000000
X_106_35                      1.000000
X_107_13                      1.000000
X_108_8                       1.000000
X_109_7                       1.000000
X_110_18                      1.000000
X_111_7                       1.000000
X_112_18                      1.000000
X_113_19                      1.000000
X_114_7                       1.000000
X_115_9                       1.000000
X_116_16                      1.000000
X_117_38                      1.000000
X_118_19                      1.000000
X_119_19                      1.000000
X_120_21                      1.000000
X_121_20                      1.000000
X_122_7                       1.000000
X_123_22                      1.000000
X_124_17                      1.000000
X_125_13                      1.000000
X_126_19                      1.000000
X_127_15                      1.000000
X_128_7                       1.000000
X_129_19                      1.000000
X_130_24                      1.000000
X_131_5                       1.000000
X_132_5                       1.000000
X_133_39                      1.000000
X_134_11                      1.000000
X_135_9                       1.000000
X_136_20                      1.000000
X_137_19                      1.000000
X_138_8                       1.000000
X_139_20                      1.000000
X_140_25                      1.000000
X_141_36                      1.000000
X_142_35                      1.000000
X_143_30                      1.000000
X_144_7                       1.000000
X_145_18                      1.000000
X_146_19                      1.000000
X_147_2                       1.000000
X_148_5                       1.000000
X_149_32                      1.000000
X_150_23                      1.000000
X_151_7                       1.000000
X_152_19                      1.000000
X_153_7                       1.000000
X_154_7                       1.000000
X_155_34                      1.000000
X_156_28                      1.000000
X_157_19                      1.000000
X_158_18                      1.000000
X_159_6                       1.000000
X_160_13                      1.000000
X_161_7                       1.000000
X_162_14                      1.000000
X_163_34                      1.000000
X_164_34                      1.000000
X_165_19                      1.000000
X_166_37                      1.000000
X_167_40                      1.000000
X_168_18                      1.000000
X_169_7                       1.000000
X_170_13                      1.000000
X_171_19                      1.000000
X_172_19                      1.000000
X_173_7                       1.000000
X_174_23                      1.000000
X_175_19                      1.000000
X_176_10                      1.000000
X_177_19                      1.000000
X_178_34                      1.000000
X_179_35                      1.000000
X_180_19                      1.000000
X_181_19                      1.000000
X_182_19                      1.000000
X_183_13                      1.000000
X_184_22                      1.000000
X_185_26                      1.000000
X_186_7                       1.000000
X_187_11                      1.000000
X_188_31                      1.000000
X_189_19                      1.000000
X_190_18                      1.000000
X_191_19                      1.000000
X_192_6                       1.000000
X_193_12                      1.000000
X_194_24                      1.000000
X_195_33                      1.000000
X_196_21                      1.000000
X_197_7                       1.000000
X_198_7                       1.000000
X_199_13                      1.000000
X_200_13                      1.000000
All other variables in the range 1-8001 are 0.
